s td 22 3 24
b 1 1 4 6
b 2 4 6 22
b 3 6 16 22
b 4 7 10 12
b 5 10 12 24
b 6 12 18 24
b 7 13 16 18
b 8 16 18 22
b 9 18 22 24
b 10 19 22 24
b 11 22 24
b 12 2 3 5
b 13 3 5 21
b 14 5 15 21
b 15 8 9 11
b 16 9 11 23
b 17 11 17 23
b 18 14 15 17
b 19 15 17 21
b 20 17 21 23
b 21 20 21 23
b 22 21 23
1 2
1 12
2 3
3 8
4 5
5 6
6 9
7 8
8 9
9 11
10 11
12 13
13 14
14 19
15 16
16 17
17 20
18 19
19 20
20 22
21 22
